Route 1: 23 41 18 67 168 183 164 181 8 45 78 151 150 90 141 91 11 142 66 166 157 133 89 17 57 124 7 38 107 138 122 145 186 69 75 125 55 96 22 70 110 109 25 12 82 171 148 53 87 153 85 126 169 154 86 99 163 80
Route 2: 34 4 74 131 116 199 192 36 33 35 117 137 162 179 62 47 100 177 94 134 104 135 170 14 165 3 63 158 81 120 9 29 129 49 144 180 98 64 16 174 111 113 2 106 149 28 188 108 76 182 54 190 52 175 155 140 1 72 39 115
Route 3: 60 197 61 77 56 65 118 139 88 152 143 119 71 48 167 44 194 95 32 21 40 193 27 128 178 191 184 200 146 102 196 176 105 130 123 84 173 187 13 159 185 42 160 101 127 114 24 136 50 112 30 46 10
Route 4: 73 79 161 26 6 19 103 31 132 195 15 59 51 172 43 92 68 147 37 58 83 93 198 5 156 121 189 97 20
Vehicles: 4
Distance: 5117.56
